p cnf 152 512
a 2 3 4 5 9 13 15 19 21 26 27 28 32 36 38 42 44 49 50 51 55 59 61 65 67 72 73 74 76 0
e 1 6 7 8 10 11 12 14 16 17 18 20 22 23 24 25 29 30 31 33 34 35 37 39 40 41 43 45 46 47 48 52 53 54 56 57 58 60 62 63 64 66 68 69 70 71 75 77 78 79 80 81 82 83 84 85 86 87 88 89 90 91 92 93 94 95 96 97 98 99 100 101 102 103 104 105 106 107 108 109 110 111 112 113 114 115 116 117 118 119 120 121 122 123 124 125 126 127 128 129 130 131 132 133 134 135 136 137 138 139 140 141 142 143 144 145 146 147 148 149 150 151 152 0
1 0
4 -6 0
5 -6 0
-4 -5 6 0
4 -7 0
-5 -7 0
-4 5 7 0
-6 8 0
-7 8 0
6 7 -8 0
8 -10 0
9 -10 0
-8 -9 10 0
8 -11 0
-9 -11 0
-8 9 11 0
-10 12 0
-11 12 0
10 11 -12 0
12 -14 0
-13 -14 0
-12 13 14 0
12 -16 0
13 -16 0
15 -16 0
-12 -13 -15 16 0
12 -17 0
13 -17 0
-15 -17 0
-12 -13 15 17 0
4 18 0
-14 18 0
-16 18 0
-17 18 0
-4 14 16 17 -18 0
2 -20 0
3 -20 0
18 -20 0
19 -20 0
-2 -3 -18 -19 20 0
2 -22 0
-3 -22 0
21 -22 0
-2 3 -21 22 0
2 -23 0
3 -23 0
18 -23 0
-19 -23 0
-2 -3 -18 19 23 0
2 -24 0
-3 -24 0
-21 -24 0
-2 3 21 24 0
-23 25 0
-24 25 0
23 24 -25 0
27 -29 0
28 -29 0
-27 -28 29 0
27 -30 0
-28 -30 0
-27 28 30 0
-29 31 0
-30 31 0
29 30 -31 0
31 -33 0
32 -33 0
-31 -32 33 0
31 -34 0
-32 -34 0
-31 32 34 0
-33 35 0
-34 35 0
33 34 -35 0
35 -37 0
-36 -37 0
-35 36 37 0
35 -39 0
36 -39 0
38 -39 0
-35 -36 -38 39 0
35 -40 0
36 -40 0
-38 -40 0
-35 -36 38 40 0
27 41 0
-37 41 0
-39 41 0
-40 41 0
-27 37 39 40 -41 0
25 -43 0
26 -43 0
41 -43 0
42 -43 0
-25 -26 -41 -42 43 0
25 -45 0
-26 -45 0
44 -45 0
-25 26 -44 45 0
25 -46 0
26 -46 0
41 -46 0
-42 -46 0
-25 -26 -41 42 46 0
25 -47 0
-26 -47 0
-44 -47 0
-25 26 44 47 0
-46 48 0
-47 48 0
46 47 -48 0
50 -52 0
51 -52 0
-50 -51 52 0
50 -53 0
-51 -53 0
-50 51 53 0
-52 54 0
-53 54 0
52 53 -54 0
54 -56 0
55 -56 0
-54 -55 56 0
54 -57 0
-55 -57 0
-54 55 57 0
-56 58 0
-57 58 0
56 57 -58 0
58 -60 0
-59 -60 0
-58 59 60 0
58 -62 0
59 -62 0
61 -62 0
-58 -59 -61 62 0
58 -63 0
59 -63 0
-61 -63 0
-58 -59 61 63 0
50 64 0
-60 64 0
-62 64 0
-63 64 0
-50 60 62 63 -64 0
48 -66 0
49 -66 0
64 -66 0
65 -66 0
-48 -49 -64 -65 66 0
48 -68 0
-49 -68 0
67 -68 0
-48 49 -67 68 0
48 -69 0
49 -69 0
64 -69 0
-65 -69 0
-48 -49 -64 65 69 0
48 -70 0
-49 -70 0
-67 -70 0
-48 49 67 70 0
-69 71 0
-70 71 0
69 70 -71 0
71 -75 0
72 -75 0
-73 -75 0
74 -75 0
-71 -72 73 -74 75 0
71 -77 0
-72 -77 0
76 -77 0
-71 72 -76 77 0
71 -78 0
-72 -78 0
-76 -78 0
-71 72 76 78 0
71 -79 0
72 -79 0
-73 -79 0
-74 -79 0
-71 -72 73 74 79 0
71 -80 0
72 -80 0
73 -80 0
-71 -72 -73 80 0
-20 81 0
-22 81 0
-43 81 0
-45 81 0
-66 81 0
-68 81 0
-75 81 0
-77 81 0
-78 81 0
-79 81 0
-80 81 0
20 22 43 45 66 68 75 77 78 79 80 -81 0
2 -82 0
-3 -82 0
21 -82 0
-2 3 -21 82 0
2 -83 0
-3 -83 0
-21 -83 0
-2 3 21 83 0
12 -84 0
-13 -84 0
-12 13 84 0
-16 85 0
-17 85 0
16 17 -85 0
4 86 0
-84 86 0
-85 86 0
-4 84 85 -86 0
86 -87 0
2 -87 0
3 -87 0
18 -87 0
-19 -87 0
-86 -2 -3 -18 19 87 0
-83 88 0
-87 88 0
83 87 -88 0
88 -89 0
25 -89 0
-26 -89 0
44 -89 0
-88 -25 26 -44 89 0
88 -90 0
-27 -90 0
-88 27 90 0
88 -91 0
35 -91 0
-36 -91 0
-88 -35 36 91 0
-39 92 0
-40 92 0
39 40 -92 0
88 -93 0
92 -93 0
-88 -92 93 0
-90 94 0
-91 94 0
-93 94 0
90 91 93 -94 0
94 -95 0
25 -95 0
26 -95 0
41 -95 0
42 -95 0
-94 -25 -26 -41 -42 95 0
88 -96 0
25 -96 0
-26 -96 0
-44 -96 0
-88 -25 26 44 96 0
94 -97 0
25 -97 0
26 -97 0
41 -97 0
-42 -97 0
-94 -25 -26 -41 42 97 0
-96 98 0
-97 98 0
96 97 -98 0
98 -99 0
48 -99 0
-49 -99 0
67 -99 0
-98 -48 49 -67 99 0
98 -100 0
-50 -100 0
-98 50 100 0
98 -101 0
58 -101 0
-59 -101 0
-98 -58 59 101 0
-62 102 0
-63 102 0
62 63 -102 0
98 -103 0
102 -103 0
-98 -102 103 0
-100 104 0
-101 104 0
-103 104 0
100 101 103 -104 0
104 -105 0
48 -105 0
49 -105 0
64 -105 0
65 -105 0
-104 -48 -49 -64 -65 105 0
98 -106 0
48 -106 0
-49 -106 0
-67 -106 0
-98 -48 49 67 106 0
104 -107 0
48 -107 0
49 -107 0
64 -107 0
-65 -107 0
-104 -48 -49 -64 65 107 0
-106 108 0
-107 108 0
106 107 -108 0
-75 109 0
-77 109 0
75 77 -109 0
108 -110 0
109 -110 0
-108 -109 110 0
108 -111 0
71 -111 0
72 -111 0
-73 -111 0
-74 -111 0
-108 -71 -72 73 74 111 0
108 -112 0
71 -112 0
72 -112 0
73 -112 0
-108 -71 -72 -73 112 0
108 -113 0
71 -113 0
-72 -113 0
-76 -113 0
-108 -71 72 76 113 0
-110 114 0
-111 114 0
-112 114 0
-113 114 0
110 111 112 113 -114 0
-75 115 0
-77 115 0
-78 115 0
-79 115 0
-80 115 0
75 77 78 79 80 -115 0
114 -116 0
115 -116 0
-114 -115 116 0
86 -117 0
2 -117 0
3 -117 0
18 -117 0
19 -117 0
-86 -2 -3 -18 -19 117 0
-82 118 0
-89 118 0
-95 118 0
-99 118 0
-105 118 0
-116 118 0
-117 118 0
82 89 95 99 105 116 117 -118 0
2 -119 0
-3 -119 0
21 -119 0
-2 3 -21 119 0
2 -120 0
-3 -120 0
-21 -120 0
-2 3 21 120 0
12 -121 0
-13 -121 0
-12 13 121 0
4 122 0
-121 122 0
-85 122 0
-4 121 85 -122 0
122 -123 0
2 -123 0
3 -123 0
18 -123 0
-19 -123 0
-122 -2 -3 -18 19 123 0
-120 124 0
-123 124 0
120 123 -124 0
124 -125 0
25 -125 0
-26 -125 0
44 -125 0
-124 -25 26 -44 125 0
124 -126 0
-27 -126 0
-124 27 126 0
124 -127 0
35 -127 0
-36 -127 0
-124 -35 36 127 0
124 -128 0
92 -128 0
-124 -92 128 0
-126 129 0
-127 129 0
-128 129 0
126 127 128 -129 0
129 -130 0
25 -130 0
26 -130 0
41 -130 0
42 -130 0
-129 -25 -26 -41 -42 130 0
124 -131 0
25 -131 0
-26 -131 0
-44 -131 0
-124 -25 26 44 131 0
129 -132 0
25 -132 0
26 -132 0
41 -132 0
-42 -132 0
-129 -25 -26 -41 42 132 0
-131 133 0
-132 133 0
131 132 -133 0
133 -134 0
48 -134 0
-49 -134 0
67 -134 0
-133 -48 49 -67 134 0
133 -135 0
-50 -135 0
-133 50 135 0
133 -136 0
58 -136 0
-59 -136 0
-133 -58 59 136 0
133 -137 0
102 -137 0
-133 -102 137 0
-135 138 0
-136 138 0
-137 138 0
135 136 137 -138 0
138 -139 0
48 -139 0
49 -139 0
64 -139 0
65 -139 0
-138 -48 -49 -64 -65 139 0
133 -140 0
48 -140 0
-49 -140 0
-67 -140 0
-133 -48 49 67 140 0
138 -141 0
48 -141 0
49 -141 0
64 -141 0
-65 -141 0
-138 -48 -49 -64 65 141 0
-140 142 0
-141 142 0
140 141 -142 0
-75 143 0
-77 143 0
75 77 -143 0
142 -144 0
143 -144 0
-142 -143 144 0
142 -145 0
71 -145 0
72 -145 0
-73 -145 0
-74 -145 0
-142 -71 -72 73 74 145 0
142 -146 0
71 -146 0
72 -146 0
73 -146 0
-142 -71 -72 -73 146 0
142 -147 0
71 -147 0
-72 -147 0
-76 -147 0
-142 -71 72 76 147 0
-144 148 0
-145 148 0
-146 148 0
-147 148 0
144 145 146 147 -148 0
148 -149 0
115 -149 0
-148 -115 149 0
122 -150 0
2 -150 0
3 -150 0
18 -150 0
19 -150 0
-122 -2 -3 -18 -19 150 0
-119 151 0
-125 151 0
-130 151 0
-134 151 0
-139 151 0
-149 151 0
-150 151 0
119 125 130 134 139 149 150 -151 0
118 -152 0
151 -152 0
1 -152 0
-118 -151 -1 152 0
-81 152 0
